************************************************************************
file with basedata            : n/a
initial value random generator: n/a
************************************************************************
projects                      :  1
jobs (incl. supersource/sink ):  122
horizon                       :  681
RESOURCES
  - renewable                 :  4   R
  - nonrenewable              :  0   N
  - doubly constrained        :  0   D
************************************************************************
PROJECT INFORMATION:
pronr.  #jobs rel.date duedate tardcost  MPM-Time
    1    120      0       97       68       97
************************************************************************
PRECEDENCE RELATIONS:
jobnr.    #modes  #successors   successors
   1        1          3           2   3   4
   2        1          3           5   8  19
   3        1          1          83
   4        1          3           7  26 107
   5        1          3           6   9  25
   6        1          3          10  77  80
   7        1          3          13  24  34
   8        1          1          59
   9        1          3          11  14  54
  10        1          2          12  33
  11        1          3          18  21  39
  12        1          3          44  48 101
  13        1          2          15  22
  14        1          1          95
  15        1          2          16  17
  16        1          1          61
  17        1          3          20  31  66
  18        1          3          27  29  37
  19        1          1          58
  20        1          1          30
  21        1          1          32
  22        1          2          23  72
  23        1          1          37
  24        1          3          28  85 114
  25        1          2          42  68
  26        1          1          36
  27        1          2          95 110
  28        1          2          47  60
  29        1          3          35  46  73
  30        1          2          90 102
  31        1          1          41
  32        1          2          38  65
  33        1          2          51  94
  34        1          1          96
  35        1          1         105
  36        1          2          43  45
  37        1          2          62  82
  38        1          2          40  95
  39        1          1          63
  40        1          3          57  87 121
  41        1          2          67  79
  42        1          1          55
  43        1          1         120
  44        1          2          49  50
  45        1          1          52
  46        1          1          76
  47        1          2          88  99
  48        1          1          83
  49        1          1          93
  50        1          3          53  63  64
  51        1          1          56
  52        1          1          67
  53        1          2          55  97
  54        1          3          58 106 111
  55        1          1         108
  56        1          2          67 101
  57        1          1          70
  58        1          3          75  98 113
  59        1          2          74 121
  60        1          1         112
  61        1          2          73  84
  62        1          3          69  78  89
  63        1          1         116
  64        1          1         113
  65        1          1          79
  66        1          3          70  77  99
  67        1          1          73
  68        1          1         115
  69        1          1          70
  70        1          1          71
  71        1          1          81
  72        1          1          99
  73        1          1         117
  74        1          1         100
  75        1          1          90
  76        1          1          88
  77        1          2          86  92
  78        1          1         103
  79        1          1          91
  80        1          1          96
  81        1          1          96
  82        1          2          84 118
  83        1          1         108
  84        1          1          97
  85        1          1         108
  86        1          1         109
  87        1          1         110
  88        1          1         118
  89        1          1         116
  90        1          1          91
  91        1          1         109
  92        1          1         104
  93        1          1         109
  94        1          2         100 106
  95        1          1          97
  96        1          1          98
  97        1          1         112
  98        1          1         101
  99        1          1         103
 100        1          1         107
 101        1          1         117
 102        1          1         115
 103        1          1         105
 104        1          1         111
 105        1          1         115
 106        1          2         110 112
 107        1          1         114
 108        1          1         120
 109        1          1         119
 110        1          1         114
 111        1          1         121
 112        1          1         113
 113        1          1         116
 114        1          1         118
 115        1          1         119
 116        1          1         117
 117        1          1         119
 118        1          1         120
 119        1          1         122
 120        1          1         122
 121        1          1         122
 122        1          0        
************************************************************************
REQUESTS/DURATIONS:
jobnr. mode duration  R 1  R 2  R 3  R 4
------------------------------------------------------------------------
  1      1     0    
  2      1     5       0   0   0   0   0
                       0   0   0   0   0
                       6   0   0   6   6
                      10   0   0  10  10
  3      1     3       3   3   3
                       9   9   9
                       9   9   9
                       8   8   8
  4      1     6       0   0   0   0   0   0
                       4   4   0   4   4   4
                       7   7   0   7   7   7
                       0   0   0   0   0   0
  5      1     3       8   8   0
                       7   7   0
                       9   9   0
                       0   0   0
  6      1     1       6
                       6
                       0
                       0
  7      1     8       7   0   0   7   7   7   7   7
                       0   0   0   0   0   0   0   0
                      10   0   0  10  10  10  10  10
                       8   0   0   8   8   8   8   8
  8      1     1       0
                       0
                       0
                       0
  9      1     4       2   0   2   0
                       6   0   6   0
                       2   0   2   0
                       9   0   9   0
 10      1     3       3   3   3
                       7   7   7
                       8   8   8
                       0   0   0
 11      1     4       0   0   0   0
                       0   0   0   0
                       0   4   0   0
                       0   0   0   0
 12      1     8       0   0   0   9   9   0   9   9
                       0   0   0   0   0   0   0   0
                       0   0   0   6   6   0   6   6
                       0   0   0   4   4   0   4   4
 13      1     6       3   3   3   3   3   3
                       7   7   7   7   7   7
                       0   0   0   0   0   0
                      10  10  10  10  10  10
 14      1     9       0   0   0   0   0   0   0   0   0
                       0   0   0   0   0   0   0   0   0
                       0   7   7   0   7   7   7   7   0
                       0   3   3   0   3   3   3   3   0
 15      1     5       0   4   4   0   4
                       0   6   6   0   6
                       0   0   0   0   0
                       0   0   0   0   0
 16      1     3       5   0   5
                       0   0   0
                       6   0   6
                       0   0   0
 17      1     6       0   0   0   0   0   0
                       8   8   8   8   8   0
                      10  10  10  10  10   0
                       7   7   7   7   7   0
 18      1     4       9   9   9   9
                       0   0   0   0
                       0   0   0   0
                       1   1   1   1
 19      1     8      10  10   0  10  10  10  10  10
                       0   0   0   0   0   0   0   0
                       5   5   0   5   5   5   5   5
                       2   2   0   2   2   2   2   2
 20      1     1       3
                       5
                       9
                      10
 21      1    10       9   0   9   9   9   9   0   9   9   9
                       9   0   9   9   9   9   0   9   9   9
                       6   0   6   6   6   6   0   6   6   6
                       4   0   4   4   4   4   0   4   4   4
 22      1     9       7   0   7   7   7   7   0   7   0
                       8   0   8   8   8   8   0   8   0
                       7   0   7   7   7   7   0   7   0
                       0   0   0   0   0   0   0   0   0
 23      1    10       9   0   9   9   9   9   9   0   9   9
                       0   0   0   0   0   0   0   0   0   0
                       0   0   0   0   0   0   0   0   0   0
                       6   0   6   6   6   6   6   0   6   6
 24      1     4       3   0   3   3
                       0   0   0   0
                       0   0   0   0
                      10   0  10  10
 25      1     1       7
                       2
                       0
                       0
 26      1     7       3   3   3   0   3   3   3
                       7   7   7   0   7   7   7
                       7   7   7   0   7   7   7
                       6   6   6   0   6   6   6
 27      1     2       0   0
                       5   0
                       7   0
                       8   0
 28      1    10       3   3   0   0   3   3   3   3   3   3
                       0   0   0   0   0   0   0   0   0   0
                       3   3   0   0   3   3   3   3   3   3
                       2   2   0   0   2   2   2   2   2   2
 29      1     9       0   0   0   0   0   0   0   0   0
                       0   0   0   0   0   0   0   0   0
                       5   5   5   5   5   5   5   5   5
                       1   1   1   1   1   1   1   1   1
 30      1     9       6   6   6   6   6   6   6   6   6
                       2   2   2   2   2   2   2   2   2
                       8   8   8   8   8   8   8   8   8
                       2   2   2   2   2   2   2   2   2
 31      1     7       6   6   0   0   6   6   6
                       4   4   0   0   4   4   4
                       5   5   0   0   5   5   5
                       9   9   0   0   9   9   9
 32      1     1       0
                       5
                       9
                       9
 33      1     4       0   1   1   1
                       0   0   0   0
                       0   6   6   6
                       0   8   8   8
 34      1     9      10   0  10  10  10  10   0  10  10
                       8   0   8   8   8   8   0   8   8
                       3   0   3   3   3   3   0   3   3
                       7   0   7   7   7   7   0   7   7
 35      1     1       9
                       0
                       8
                       2
 36      1     7      10  10  10  10  10  10  10
                       1   1   1   1   1   1   1
                       0   0   0   0   0   0   0
                       3   3   3   3   3   3   3
 37      1    10       9   9   9   9   9   9   9   9   9   9
                       8   8   8   8   8   8   8   8   8   8
                       7   7   7   7   7   7   7   7   7   7
                       9   9   9   9   9   9   9   9   9   9
 38      1     6       0   1   0   1   1   1
                       0   0   0   0   0   0
                       0   3   0   3   3   3
                       0   0   0   0   0   0
 39      1     8       7   0   7   0   7   0   7   7
                       4   0   4   0   4   0   4   4
                       3   0   3   0   3   0   3   3
                       2   0   2   0   2   0   2   2
 40      1     2       6   0
                       0   0
                      10   0
                       5   0
 41      1     8       3   3   3   3   0   3   3   3
                       3   3   3   3   0   3   3   3
                       0   0   0   0   0   0   0   0
                       0   0   0   0   0   0   0   0
 42      1     2       2   2
                       8   8
                       4   4
                       3   3
 43      1     9       6   0   6   6   0   6   6   6   6
                      10   0  10  10   0  10  10  10  10
                      10   0  10  10   0  10  10  10  10
                       7   0   7   7   0   7   7   7   7
 44      1     9       0   0   0   0   0   0   0   0   0
                       0   0   0   0   0   0   0   0   0
                       2   0   2   2   2   2   2   2   2
                       9   0   9   9   9   9   9   9   9
 45      1     9      10  10   0  10   0  10  10   0  10
                       1   1   0   1   0   1   1   0   1
                       7   7   0   7   0   7   7   0   7
                       9   9   0   9   0   9   9   0   9
 46      1     3       0   0   0
                       4   4   4
                       7   7   7
                       0   0   0
 47      1     9       4   4   4   4   4   4   4   0   0
                       1   1   1   1   1   1   1   0   0
                       2   2   2   2   2   2   2   0   0
                      10  10  10  10  10  10  10   0   0
 48      1    10       0   6   6   6   6   6   6   6   6   6
                       0   0   0   0   0   0   0   0   0   0
                       0   8   8   8   8   8   8   8   8   8
                       0   1   1   1   1   1   1   1   1   1
 49      1     5       7   0   0   0   7
                       7   0   0   0   7
                       4   0   0   0   4
                       7   0   0   0   7
 50      1     9       0   9   9   9   9   9   9   9   9
                       0   7   7   7   7   7   7   7   7
                       0   8   8   8   8   8   8   8   8
                       0   1   1   1   1   1   1   1   1
 51      1    10       0   0   0   0   0   0   0   0   0   0
                       8   8   8   8   8   0   8   8   8   0
                       9   9   9   9   9   0   9   9   9   0
                      10  10  10  10  10   0  10  10  10   0
 52      1     3       9   9   9
                       5   5   5
                       0   0   0
                       1   1   1
 53      1     6       6   6   6   6   6   6
                       6   6   6   6   6   6
                       0   0   0   0   0   0
                       8   8   8   8   8   8
 54      1     2       6   6
                       2   2
                       7   7
                       7   7
 55      1     2       1   0
                       9   0
                       3   0
                       0   0
 56      1     2       0   8
                       0   0
                       0   6
                       0   6
 57      1     1       0
                       1
                       0
                       9
 58      1     4      10  10  10   0
                       7   7   7   0
                       2   2   2   0
                       0   0   0   0
 59      1    10       0   3   3   3   3   0   0   0   3   3
                       0   3   3   3   3   0   0   0   3   3
                       0  10  10  10  10   0   0   0  10  10
                       0   6   6   6   6   0   0   0   6   6
 60      1     5       7   0   7   7   7
                       7   0   7   7   7
                       3   0   3   3   3
                       1   0   1   1   1
 61      1     3      10  10   0
                       7   7   0
                       4   4   0
                       9   9   0
 62      1     7      10  10  10   0  10  10  10
                       4   4   4   0   4   4   4
                       2   2   2   0   2   2   2
                       5   5   5   0   5   5   5
 63      1     3       0   0   0
                       7   7   0
                       7   7   0
                      10  10   0
 64      1     1       7
                       3
                       1
                       0
 65      1     5       4   4   4   4   4
                       3   3   3   3   3
                       0   0   0   0   0
                      10  10  10  10  10
 66      1     6       8   8   8   8   8   0
                       4   4   4   4   4   0
                       1   1   1   1   1   0
                       0   0   0   0   0   0
 67      1     6       8   8   8   0   8   8
                       0   0   0   0   0   0
                      10  10  10   0  10  10
                       4   4   4   0   4   4
 68      1     3       0   0   0
                       4   0   4
                       5   0   5
                       8   0   8
 69      1     6       4   4   0   4   4   4
                       3   3   0   3   3   3
                       0   0   0   0   0   0
                       3   3   0   3   3   3
 70      1     7       5   5   5   5   5   5   5
                       0   0   0   0   0   0   0
                      10  10  10  10  10  10  10
                       3   3   3   3   3   3   3
 71      1     1       8
                       9
                      10
                       0
 72      1     9       0   0   0   0   0   0   0   0   0
                       0   8   8   8   8   8   8   0   0
                       0   7   7   7   7   7   7   0   0
                       0   8   8   8   8   8   8   0   0
 73      1     4       5   5   5   5
                       9   9   9   9
                       2   2   2   2
                       0   0   0   0
 74      1     3       3   3   3
                       3   3   3
                       0   0   0
                       9   9   9
 75      1    10       0   0   0   0   0   0   0   0   0   0
                       9   9   9   9   9   9   9   9   9   9
                       6   6   6   6   6   6   6   6   6   6
                       1   1   1   1   1   1   1   1   1   1
 76      1     6       1   0   1   0   1   1
                       0   0   0   0   0   0
                      10   0  10   0  10  10
                      10   0  10   0  10  10
 77      1     8       0   0   0   0   0   0   0   0
                       8   8   8   8   8   8   8   8
                       9   9   9   9   9   9   9   9
                       6   6   6   6   6   6   6   6
 78      1    10       2   2   2   0   2   2   2   0   2   2
                       5   5   5   0   5   5   5   0   5   5
                       2   2   2   0   2   2   2   0   2   2
                       7   7   7   0   7   7   7   0   7   7
 79      1    10       0   0   0   0   0   0   0   0   0   0
                       8   8   8   8   0   8   0   8   8   8
                       9   9   9   9   0   9   0   9   9   9
                       0   0   0   0   0   0   0   0   0   0
 80      1     5       5   0   5   5   0
                      10   0  10  10   0
                       0   0   0   0   0
                       4   0   4   4   0
 81      1     1       0
                      10
                      10
                       5
 82      1     1       0
                       0
                       6
                       0
 83      1     5       0   0   0   0   0
                       3   3   3   0   3
                       5   5   5   0   5
                       3   3   3   0   3
 84      1     9       0   0   7   7   7   7   7   7   7
                       0   0   6   6   6   6   6   6   6
                       0   0   7   7   7   7   7   7   7
                       0   0   9   9   9   9   9   9   9
 85      1     1      10
                       2
                       0
                       1
 86      1     6       0   0   0   0   0   0
                       8   0   8   8   8   8
                       2   0   2   2   2   2
                       7   0   7   7   7   7
 87      1     8       3   3   3   3   3   3   3   0
                       1   1   1   1   1   1   1   0
                       2   2   2   2   2   2   2   0
                       1   1   1   1   1   1   1   0
 88      1     3       9   9   0
                       0   0   0
                       3   3   0
                       7   7   0
 89      1     9       6   0   6   6   0   6   6   6   6
                       4   0   4   4   0   4   4   4   4
                       2   0   2   2   0   2   2   2   2
                       0   0   0   0   0   0   0   0   0
 90      1     5       0   0   0   0   0
                       0   7   7   7   7
                       0   4   4   4   4
                       0   0   0   0   0
 91      1    10       7   0   7   0   7   7   0   0   7   7
                       3   0   3   0   3   3   0   0   3   3
                       5   0   5   0   5   5   0   0   5   5
                      10   0  10   0  10  10   0   0  10  10
 92      1     6       0   0   0   0   0   0
                       0   1   1   1   1   1
                       0  10  10  10  10  10
                       0   9   9   9   9   9
 93      1     5       0   7   7   7   7
                       0   0   0   0   0
                       0   0   0   0   0
                       0   0   0   0   0
 94      1     9       0   0   0   0   0   0   0   0   0
                       2   0   2   2   2   2   2   0   2
                       1   0   1   1   1   1   1   0   1
                       5   0   5   5   5   5   5   0   5
 95      1     8       0   2   2   0   0   0   2   0
                       0   4   4   0   0   0   4   0
                       0   5   5   0   0   0   5   0
                       0   0   0   0   0   0   0   0
 96      1     6       5   5   5   5   5   5
                       0   0   0   0   0   0
                       7   7   7   7   7   7
                       6   6   6   6   6   6
 97      1     6       0  10   0  10  10  10
                       0   0   0   0   0   0
                       0   7   0   7   7   7
                       0   2   0   2   2   2
 98      1     4       0   0   1   1
                       0   0   6   6
                       0   0   6   6
                       0   0   0   0
 99      1     4       0   4   0   4
                       0   1   0   1
                       0   9   0   9
                       0   0   0   0
100      1     2       0   0
                       0   0
                       4   4
                       8   8
101      1     7       0   1   1   1   1   1   1
                       0   7   7   7   7   7   7
                       0   5   5   5   5   5   5
                       0   0   0   0   0   0   0
102      1     8       0   8   0   8   8   0   8   8
                       0   0   0   0   0   0   0   0
                       0   4   0   4   4   0   4   4
                       0   2   0   2   2   0   2   2
103      1     9       7   7   0   7   7   7   7   7   7
                       0   0   0   0   0   0   0   0   0
                       1   1   0   1   1   1   1   1   1
                       1   1   0   1   1   1   1   1   1
104      1     7       1   1   1   1   1   1   1
                       0   0   0   0   0   0   0
                       0   0   0   0   0   0   0
                       2   2   2   2   2   2   2
105      1     2       3   3
                       5   5
                      10  10
                       0   0
106      1     8       0   0  10  10  10  10  10  10
                       0   0   9   9   9   9   9   9
                       0   0   0   0   0   0   0   0
                       0   0   9   9   9   9   9   9
107      1     3       0   0   0
                       0   5   5
                       0  10  10
                       0   4   4
108      1     9       0   7   7   7   0   7   7   7   0
                       0  10  10  10   0  10  10  10   0
                       0   7   7   7   0   7   7   7   0
                       0   1   1   1   0   1   1   1   0
109      1     4       0   0   0   0
                       0   0   0   0
                       4   4   4   4
                       4   4   4   4
110      1     9       5   0   5   5   0   5   5   5   5
                       9   0   9   9   0   9   9   9   9
                       5   0   5   5   0   5   5   5   5
                       1   0   1   1   0   1   1   1   1
111      1     7       4   4   0   4   0   4   4
                       7   7   0   7   0   7   7
                       0   0   0   0   0   0   0
                       0   0   0   0   0   0   0
112      1     2       0  10
                       0   6
                       0   7
                       0   8
113      1     6       2   2   0   2   2   2
                       7   7   0   7   7   7
                       3   3   0   3   3   3
                       7   7   0   7   7   7
114      1     9       0   0   0   0   0   0   0   0   0
                       8   8   0   8   8   8   8   8   8
                       0   0   0   0   0   0   0   0   0
                       2   2   0   2   2   2   2   2   2
115      1     5       4   4   4   4   4
                       0   0   0   0   0
                       8   8   8   8   8
                      10  10  10  10  10
116      1     6       1   1   1   0   0   1
                       2   2   2   0   0   2
                       4   4   4   0   0   4
                       1   1   1   0   0   1
117      1     6       4   4   0   4   4   4
                       6   6   0   6   6   6
                       7   7   0   7   7   7
                       9   9   0   9   9   9
118      1     7       0   0   6   6   6   6   6
                       0   0   0   0   0   0   0
                       0   0   0   0   0   0   0
                       0   0  10  10  10  10  10
119      1     3       4   4   0
                       5   5   0
                       7   7   0
                       0   0   0
120      1     5       0   0   0   0   0
                       8   8   8   8   8
                       2   2   2   2   2
                      10  10  10  10  10
121      1     6       3   3   0   3   0   3
                       5   5   0   5   0   5
                       4   4   0   4   0   4
                       1   1   0   1   0   1
122      1     0    
************************************************************************
RESOURCEAVAILABILITIES:
  R 1  R 2  R 3  R 4

  18  18  18  18  18  18  18  18  18  18  18  18  18  18  18  18  18  18  18  18  18  18  18  18  18  18  18  18   0  18  18  18  18  18  18  18  18  18  18  18  18   0   0  18  18   0  18  18   0  18  18  18  18  18  18  18  18  18   0  18  18  18  18  18  18   0  18  18  18  18  18   0  18  18   0  18  18  18  18  18  18  18  18   0  18  18   0  18  18  18  18  18  18   0  18  18   0  18  18  18  18  18  18  18  18  18  18  18  18  18  18  18  18  18  18  18  18  18  18  18  18   0  18   0  18  18   0  18  18  18  18  18  18  18  18  18  18  18   0  18  18   0  18  18  18  18   0   0   0   0  18  18  18   0  18  18  18  18   0  18   0  18  18  18  18   0  18  18  18  18  18  18  18  18  18  18  18   0  18  18  18   0  18  18  18  18  18  18  18  18   0  18  18   0  18  18  18  18  18  18  18  18  18  18  18  18  18  18  18   0  18  18  18   0  18  18   0  18  18  18  18   0  18  18  18  18  18  18  18  18  18  18  18  18   0  18  18  18   0   0  18  18  18   0  18  18   0  18  18  18  18  18  18  18  18   0   0   0   0  18  18  18  18  18  18  18  18   0  18  18  18  18  18   0  18  18  18   0   0  18  18  18  18  18  18  18  18  18  18  18  18  18   0   0  18  18   0  18  18  18  18  18  18  18   0  18   0  18  18  18  18  18  18  18  18  18   0  18  18   0  18  18  18  18   0  18   0  18   0  18  18  18  18  18  18  18  18  18  18  18  18  18  18  18  18  18  18  18   0   0   0  18   0  18   0  18   0  18   0  18   0  18   0  18  18  18  18  18  18  18  18  18   0  18  18  18  18  18  18  18   0  18  18  18  18  18  18  18  18  18  18  18   0  18   0  18  18  18  18  18   0  18  18   0  18  18   0   0  18  18   0   0   0  18  18  18   0  18  18  18  18  18  18  18  18  18   0  18  18  18  18  18  18  18  18  18  18  18  18  18  18  18  18  18  18  18  18  18  18  18  18  18  18  18   0  18   0  18  18  18  18  18   0   0  18  18  18  18  18  18  18  18  18  18  18  18  18  18  18  18  18  18  18   0  18  18  18  18  18  18  18  18  18  18  18  18   0  18   0  18  18   0  18  18  18  18  18  18  18  18   0  18  18  18  18  18   0   0  18  18  18   0  18  18  18   0  18  18  18  18  18  18  18  18  18  18  18   0  18  18  18  18  18  18  18  18  18  18  18  18  18  18  18  18  18  18  18  18  18  18   0  18  18  18  18  18  18  18   0  18   0   0   0  18  18  18  18   0  18  18  18  18   0   0  18  18  18  18  18   0  18   0  18  18   0  18   0   0  18  18  18  18  18  18  18  18  18   0   0  18  18  18  18  18  18  18  18  18  18  18   0  18  18  18  18  18  18  18  18  18  18  18   0   0  18  18  18  18  18  18  18   0  18  18  18  18   0   0  18  18  18  18  18  18  18  18  18  18  18  18  18  18  18  18  18   0   0  18  18  18   0  18  18  18  18   0   0  18  18   0   0

  16  16  16  16  16  16  16  16  16  16  16  16  16  16  16  16  16  16  16  16  16  16  16  16  16  16  16  16   0  16  16  16  16  16  16  16  16  16  16  16  16   0   0  16  16   0  16  16   0  16  16  16  16  16  16  16  16  16   0  16  16  16  16  16  16   0  16  16  16  16  16   0  16  16   0  16  16  16  16  16  16  16  16   0  16  16   0  16  16  16  16  16  16   0  16  16   0  16  16  16  16  16  16  16  16  16  16  16  16  16  16  16  16  16  16  16  16  16  16  16  16   0  16   0  16  16   0  16  16  16  16  16  16  16  16  16  16  16   0  16  16   0  16  16  16  16   0   0   0   0  16  16  16   0  16  16  16  16   0  16   0  16  16  16  16   0  16  16  16  16  16  16  16  16  16  16  16   0  16  16  16   0  16  16  16  16  16  16  16  16   0  16  16   0  16  16  16  16  16  16  16  16  16  16  16  16  16  16  16   0  16  16  16   0  16  16   0  16  16  16  16   0  16  16  16  16  16  16  16  16  16  16  16  16   0  16  16  16   0   0  16  16  16   0  16  16   0  16  16  16  16  16  16  16  16   0   0   0   0  16  16  16  16  16  16  16  16   0  16  16  16  16  16   0  16  16  16   0   0  16  16  16  16  16  16  16  16  16  16  16  16  16   0   0  16  16   0  16  16  16  16  16  16  16   0  16   0  16  16  16  16  16  16  16  16  16   0  16  16   0  16  16  16  16   0  16   0  16   0  16  16  16  16  16  16  16  16  16  16  16  16  16  16  16  16  16  16  16   0   0   0  16   0  16   0  16   0  16   0  16   0  16   0  16  16  16  16  16  16  16  16  16   0  16  16  16  16  16  16  16   0  16  16  16  16  16  16  16  16  16  16  16   0  16   0  16  16  16  16  16   0  16  16   0  16  16   0   0  16  16   0   0   0  16  16  16   0  16  16  16  16  16  16  16  16  16   0  16  16  16  16  16  16  16  16  16  16  16  16  16  16  16  16  16  16  16  16  16  16  16  16  16  16  16   0  16   0  16  16  16  16  16   0   0  16  16  16  16  16  16  16  16  16  16  16  16  16  16  16  16  16  16  16   0  16  16  16  16  16  16  16  16  16  16  16  16   0  16   0  16  16   0  16  16  16  16  16  16  16  16   0  16  16  16  16  16   0   0  16  16  16   0  16  16  16   0  16  16  16  16  16  16  16  16  16  16  16   0  16  16  16  16  16  16  16  16  16  16  16  16  16  16  16  16  16  16  16  16  16  16   0  16  16  16  16  16  16  16   0  16   0   0   0  16  16  16  16   0  16  16  16  16   0   0  16  16  16  16  16   0  16   0  16  16   0  16   0   0  16  16  16  16  16  16  16  16  16   0   0  16  16  16  16  16  16  16  16  16  16  16   0  16  16  16  16  16  16  16  16  16  16  16   0   0  16  16  16  16  16  16  16   0  16  16  16  16   0   0  16  16  16  16  16  16  16  16  16  16  16  16  16  16  16  16  16   0   0  16  16  16   0  16  16  16  16   0   0  16  16   0   0

  17  17  17  17  17  17  17  17  17  17  17  17  17  17  17  17  17  17  17  17  17  17  17  17  17  17  17  17   0  17  17  17  17  17  17  17  17  17  17  17  17   0   0  17  17   0  17  17   0  17  17  17  17  17  17  17  17  17   0  17  17  17  17  17  17   0  17  17  17  17  17   0  17  17   0  17  17  17  17  17  17  17  17   0  17  17   0  17  17  17  17  17  17   0  17  17   0  17  17  17  17  17  17  17  17  17  17  17  17  17  17  17  17  17  17  17  17  17  17  17  17   0  17   0  17  17   0  17  17  17  17  17  17  17  17  17  17  17   0  17  17   0  17  17  17  17   0   0   0   0  17  17  17   0  17  17  17  17   0  17   0  17  17  17  17   0  17  17  17  17  17  17  17  17  17  17  17   0  17  17  17   0  17  17  17  17  17  17  17  17   0  17  17   0  17  17  17  17  17  17  17  17  17  17  17  17  17  17  17   0  17  17  17   0  17  17   0  17  17  17  17   0  17  17  17  17  17  17  17  17  17  17  17  17   0  17  17  17   0   0  17  17  17   0  17  17   0  17  17  17  17  17  17  17  17   0   0   0   0  17  17  17  17  17  17  17  17   0  17  17  17  17  17   0  17  17  17   0   0  17  17  17  17  17  17  17  17  17  17  17  17  17   0   0  17  17   0  17  17  17  17  17  17  17   0  17   0  17  17  17  17  17  17  17  17  17   0  17  17   0  17  17  17  17   0  17   0  17   0  17  17  17  17  17  17  17  17  17  17  17  17  17  17  17  17  17  17  17   0   0   0  17   0  17   0  17   0  17   0  17   0  17   0  17  17  17  17  17  17  17  17  17   0  17  17  17  17  17  17  17   0  17  17  17  17  17  17  17  17  17  17  17   0  17   0  17  17  17  17  17   0  17  17   0  17  17   0   0  17  17   0   0   0  17  17  17   0  17  17  17  17  17  17  17  17  17   0  17  17  17  17  17  17  17  17  17  17  17  17  17  17  17  17  17  17  17  17  17  17  17  17  17  17  17   0  17   0  17  17  17  17  17   0   0  17  17  17  17  17  17  17  17  17  17  17  17  17  17  17  17  17  17  17   0  17  17  17  17  17  17  17  17  17  17  17  17   0  17   0  17  17   0  17  17  17  17  17  17  17  17   0  17  17  17  17  17   0   0  17  17  17   0  17  17  17   0  17  17  17  17  17  17  17  17  17  17  17   0  17  17  17  17  17  17  17  17  17  17  17  17  17  17  17  17  17  17  17  17  17  17   0  17  17  17  17  17  17  17   0  17   0   0   0  17  17  17  17   0  17  17  17  17   0   0  17  17  17  17  17   0  17   0  17  17   0  17   0   0  17  17  17  17  17  17  17  17  17   0   0  17  17  17  17  17  17  17  17  17  17  17   0  17  17  17  17  17  17  17  17  17  17  17   0   0  17  17  17  17  17  17  17   0  17  17  17  17   0   0  17  17  17  17  17  17  17  17  17  17  17  17  17  17  17  17  17   0   0  17  17  17   0  17  17  17  17   0   0  17  17   0   0

  17  17  17  17  17  17  17  17  17  17  17  17  17  17  17  17  17  17  17  17  17  17  17  17  17  17  17  17   0  17  17  17  17  17  17  17  17  17  17  17  17   0   0  17  17   0  17  17   0  17  17  17  17  17  17  17  17  17   0  17  17  17  17  17  17   0  17  17  17  17  17   0  17  17   0  17  17  17  17  17  17  17  17   0  17  17   0  17  17  17  17  17  17   0  17  17   0  17  17  17  17  17  17  17  17  17  17  17  17  17  17  17  17  17  17  17  17  17  17  17  17   0  17   0  17  17   0  17  17  17  17  17  17  17  17  17  17  17   0  17  17   0  17  17  17  17   0   0   0   0  17  17  17   0  17  17  17  17   0  17   0  17  17  17  17   0  17  17  17  17  17  17  17  17  17  17  17   0  17  17  17   0  17  17  17  17  17  17  17  17   0  17  17   0  17  17  17  17  17  17  17  17  17  17  17  17  17  17  17   0  17  17  17   0  17  17   0  17  17  17  17   0  17  17  17  17  17  17  17  17  17  17  17  17   0  17  17  17   0   0  17  17  17   0  17  17   0  17  17  17  17  17  17  17  17   0   0   0   0  17  17  17  17  17  17  17  17   0  17  17  17  17  17   0  17  17  17   0   0  17  17  17  17  17  17  17  17  17  17  17  17  17   0   0  17  17   0  17  17  17  17  17  17  17   0  17   0  17  17  17  17  17  17  17  17  17   0  17  17   0  17  17  17  17   0  17   0  17   0  17  17  17  17  17  17  17  17  17  17  17  17  17  17  17  17  17  17  17   0   0   0  17   0  17   0  17   0  17   0  17   0  17   0  17  17  17  17  17  17  17  17  17   0  17  17  17  17  17  17  17   0  17  17  17  17  17  17  17  17  17  17  17   0  17   0  17  17  17  17  17   0  17  17   0  17  17   0   0  17  17   0   0   0  17  17  17   0  17  17  17  17  17  17  17  17  17   0  17  17  17  17  17  17  17  17  17  17  17  17  17  17  17  17  17  17  17  17  17  17  17  17  17  17  17   0  17   0  17  17  17  17  17   0   0  17  17  17  17  17  17  17  17  17  17  17  17  17  17  17  17  17  17  17   0  17  17  17  17  17  17  17  17  17  17  17  17   0  17   0  17  17   0  17  17  17  17  17  17  17  17   0  17  17  17  17  17   0   0  17  17  17   0  17  17  17   0  17  17  17  17  17  17  17  17  17  17  17   0  17  17  17  17  17  17  17  17  17  17  17  17  17  17  17  17  17  17  17  17  17  17   0  17  17  17  17  17  17  17   0  17   0   0   0  17  17  17  17   0  17  17  17  17   0   0  17  17  17  17  17   0  17   0  17  17   0  17   0   0  17  17  17  17  17  17  17  17  17   0   0  17  17  17  17  17  17  17  17  17  17  17   0  17  17  17  17  17  17  17  17  17  17  17   0   0  17  17  17  17  17  17  17   0  17  17  17  17   0   0  17  17  17  17  17  17  17  17  17  17  17  17  17  17  17  17  17   0   0  17  17  17   0  17  17  17  17   0   0  17  17   0   0

************************************************************************
